(set-logic QF_UF)
(declare-fun A1 () Bool)
(declare-fun A2 () Bool)
(declare-fun A3 () Bool)
(declare-fun A4 () Bool)
(declare-fun A5 () Bool)
(declare-fun A6 () Bool)
(declare-fun A7 () Bool)
(declare-fun A8 () Bool)
(declare-fun A9 () Bool)
(declare-fun A10 () Bool)
(declare-fun A11 () Bool)
(declare-fun A12 () Bool)
(declare-fun A13 () Bool)
(declare-fun A14 () Bool)
(declare-fun A15 () Bool)
(declare-fun A16 () Bool)
(declare-fun A17 () Bool)
(declare-fun A18 () Bool)
(declare-fun A19 () Bool)
(declare-fun A20 () Bool)
(declare-fun A21 () Bool)
(declare-fun A22 () Bool)
(declare-fun A23 () Bool)
(declare-fun A24 () Bool)
(assert (let ((.def_0 (not A19))) (let ((.def_1 (and .def_0 A22))) (let ((.def_2 (not .def_1))) (let ((.def_3 (not A11))) (let ((.def_4 (not A21))) (let ((.def_5 (and .def_4 .def_3))) (let ((.def_6 (or .def_5 .def_2))) (let ((.def_7 (not .def_6))) (let ((.def_8 (or A9 A14))) (let ((.def_9 (not .def_8))) (let ((.def_10 (not A22))) (let ((.def_11 (not A4))) (let ((.def_12 (or .def_11 .def_10))) (let ((.def_13 (not .def_12))) (let ((.def_14 (or .def_13 .def_9))) (let ((.def_15 (or .def_14 .def_7))) (let ((.def_16 (not .def_15))) (let ((.def_17 (not A18))) (let ((.def_18 (or A19 .def_17))) (let ((.def_19 (not .def_18))) (let ((.def_20 (not A24))) (let ((.def_21 (or A2 .def_20))) (let ((.def_22 (not .def_21))) (let ((.def_23 (or .def_22 .def_19))) (let ((.def_24 (not .def_23))) (let ((.def_25 (not A3))) (let ((.def_26 (or .def_25 A16))) (let ((.def_27 (not .def_26))) (let ((.def_28 (or .def_0 A15))) (let ((.def_29 (not .def_28))) (let ((.def_30 (and .def_29 .def_27))) (let ((.def_31 (not .def_30))) (let ((.def_32 (= .def_31 .def_24))) (let ((.def_33 (= .def_32 .def_16))) (let ((.def_34 (or A6 A19))) (let ((.def_35 (not A7))) (let ((.def_36 (or A5 .def_35))) (let ((.def_37 (not .def_36))) (let ((.def_38 (or .def_37 .def_34))) (let ((.def_39 (not A23))) (let ((.def_40 (or A19 .def_39))) (let ((.def_41 (not .def_40))) (let ((.def_42 (or A20 A17))) (let ((.def_43 (not .def_42))) (let ((.def_44 (or .def_43 .def_41))) (let ((.def_45 (not .def_44))) (let ((.def_46 (and .def_45 .def_38))) (let ((.def_47 (and A10 A22))) (let ((.def_48 (not A16))) (let ((.def_49 (and A22 .def_48))) (let ((.def_50 (not .def_49))) (let ((.def_51 (or .def_50 .def_47))) (let ((.def_52 (or A16 A8))) (let ((.def_53 (not .def_52))) (let ((.def_54 (not A12))) (let ((.def_55 (and .def_54 A18))) (let ((.def_56 (not .def_55))) (let ((.def_57 (or .def_56 .def_53))) (let ((.def_58 (not .def_57))) (let ((.def_59 (or .def_58 .def_51))) (let ((.def_60 (or .def_59 .def_46))) (let ((.def_61 (not .def_60))) (let ((.def_62 (or .def_61 .def_33))) (let ((.def_63 (or A6 A1))) (let ((.def_64 (not .def_63))) (let ((.def_65 (not A13))) (let ((.def_66 (and A21 .def_65))) (let ((.def_67 (and .def_66 .def_64))) (let ((.def_68 (or A20 .def_10))) (let ((.def_69 (or A16 .def_11))) (let ((.def_70 (not .def_69))) (let ((.def_71 (and .def_70 .def_68))) (let ((.def_72 (or .def_71 .def_67))) (let ((.def_73 (not .def_72))) (let ((.def_74 (or A21 A12))) (let ((.def_75 (not .def_74))) (let ((.def_76 (and A24 A16))) (let ((.def_77 (not .def_76))) (let ((.def_78 (and .def_77 .def_75))) (let ((.def_79 (or .def_54 .def_20))) (let ((.def_80 (not A10))) (let ((.def_81 (and .def_80 A17))) (let ((.def_82 (and .def_81 .def_79))) (let ((.def_83 (and .def_82 .def_78))) (let ((.def_84 (and .def_83 .def_73))) (let ((.def_85 (or .def_48 .def_65))) (let ((.def_86 (= A13 A23))) (let ((.def_87 (not .def_86))) (let ((.def_88 (and .def_87 .def_85))) (let ((.def_89 (or .def_48 A16))) (let ((.def_90 (not .def_89))) (let ((.def_91 (or A20 A11))) (let ((.def_92 (not .def_91))) (let ((.def_93 (and .def_92 .def_90))) (let ((.def_94 (not .def_93))) (let ((.def_95 (or .def_94 .def_88))) (let ((.def_96 (not .def_95))) (let ((.def_97 (or .def_48 .def_35))) (let ((.def_98 (and A18 .def_17))) (let ((.def_99 (not .def_98))) (let ((.def_100 (or .def_99 .def_97))) (let ((.def_101 (not .def_100))) (let ((.def_102 (or .def_0 .def_39))) (let ((.def_103 (not A9))) (let ((.def_104 (or .def_103 .def_54))) (let ((.def_105 (= .def_104 .def_102))) (let ((.def_106 (and .def_105 .def_101))) (let ((.def_107 (= .def_106 .def_96))) (let ((.def_108 (and .def_107 .def_84))) (let ((.def_109 (or .def_108 .def_62))) .def_109)))))))))))))))))))))))))))))))))))))))))))))))))))))))))))))))))))))))))))))))))))))))))))))))))))))))))))))))
(check-sat)
